944569
114,51,220,24,122,79,131,181,60,147,130,123,180,192,118,69,85,113,125,205,135,194,83,64,163,153,28,199,197,9,173,10,196,138,57,58,56,94,213,164,119,45,18,133,226,193,96,7,109,137,136,4,155,222,175,43,12,110,47,46,224,16,14,29,219,63,144,210,19,116,182,0,71,6,143,95,183,115,100,191,36,33,178,195,74,214,77,54,101,80,39,61,86,34,93,107,49,150,27,129,168,26,111,154,132,228,35,209,15,68,190,159,112,41,97,50,22,225,121,176,151,72,208,217,172,187,84,166,78,75,142,124,13,200,2,59,184,207,188,162,158,146,126,198,30,177,42,38,206,48,117,134,156,73,66,70,161,82,139,31,62,21,25,90,88,106,160,204,165,8,5,67,32,223,37,128,102,186,11,145,87,185,170,149,89,108,20,141,169,3,227,216,152,202,103,211,44,229,92,212,167,171,203,1,81,179,76,105,218,65,189,98,201,104,174,53,17,55,91,52,99,215,23,140,127,40,221,120,157,148
